120
150
57
44
57
51
41
55
55
58
48
54
54
54
48
51
58
48
57
51
51
44
41
42
53
51
51
49
58
48
46
42
48
54
43
48
51
48
60
51
45
53
50
45
54
40
53
52
47
43
58
59
48
54
56
59
51
43
51
54
52
54
58
41
45
52
53
48
54
49
44
51
44
59
46
45
51
51
54
48
43
53
40
53
40
51
51
48
46
51
53
56
43
57
53
50
40
54
60
46
48
51
51
50
40
51
41
49
43
54
55
56
54
54
45
51
44
48
54
48
41
40
